NAME 
ROWS
 N  OBJ
 L  R0      
 E  R1      
 E  R2      
 E  R3      
 E  R4      
 E  R5      
 E  R6      
 E  R7      
 E  R8      
 E  R9      
 E  R10     
 E  R11     
 E  R12     
 E  R13     
 E  R14     
 E  R15     
 E  R16     
 E  R17     
 E  R18     
 E  R19     
 E  R20     
 E  R21     
 E  R22     
 E  R23     
 E  R24     
 E  R25     
 E  R26     
 E  R27     
 E  R28     
 E  R29     
 E  R30     
COLUMNS
    MARKER    'MARKER'                 'INTORG'
    I0(3)     OBJ       -138
    I0(3)     R0        19
    I0(3)     R1        -1
    I0(3)     R30       1
    I1(3)     OBJ       -24
    I1(3)     R0        -108
    I1(3)     R2        8
    I1(3)     R30       1
    I2(3)     OBJ       -58
    I2(3)     R0        67
    I2(3)     R3        9
    I2(3)     R30       1
    I3(3)     OBJ       131
    I3(3)     R0        -191
    I3(3)     R4        11
    I3(3)     R30       1
    I4(3)     OBJ       33
    I4(3)     R0        147
    I4(3)     R5        19
    I4(3)     R30       1
    I5(3)     OBJ       -34
    I5(3)     R0        35
    I5(3)     R6        1
    I5(3)     R30       1
    I6(3)     OBJ       -121
    I6(3)     R0        -115
    I6(3)     R7        17
    I6(3)     R30       1
    I7(3)     OBJ       72
    I7(3)     R0        -48
    I7(3)     R8        1
    I7(3)     R30       1
    I8(3)     OBJ       -38
    I8(3)     R0        -20
    I8(3)     R9        14
    I8(3)     R30       1
    I9(3)     OBJ       -51
    I9(3)     R0        -9
    I9(3)     R10       2
    I9(3)     R30       1
    I10(3)    OBJ       -44
    I10(3)    R0        -6
    I10(3)    R11       10
    I10(3)    R30       1
    I11(3)    OBJ       101
    I11(3)    R0        69
    I11(3)    R12       18
    I11(3)    R30       1
    I12(3)    OBJ       -159
    I12(3)    R0        -153
    I12(3)    R13       17
    I12(3)    R30       1
    I13(3)    OBJ       24
    I13(3)    R0        17
    I13(3)    R14       4
    I13(3)    R30       1
    I14(3)    OBJ       161
    I14(3)    R0        -80
    I14(3)    R15       13
    I14(3)    R30       1
    I15(3)    OBJ       -132
    I15(3)    R0        158
    I15(3)    R16       12
    I15(3)    R30       1
    I16(3)    OBJ       123
    I16(3)    R0        182
    I16(3)    R17       4
    I16(3)    R30       1
    I17(3)    OBJ       -32
    I17(3)    R0        176
    I17(3)    R18       16
    I17(3)    R30       1
    I18(3)    OBJ       -88
    I18(3)    R0        189
    I18(3)    R19       18
    I18(3)    R30       1
    I19(3)    OBJ       109
    I19(3)    R0        -29
    I19(3)    R20       5
    I19(3)    R30       1
    I20(3)    OBJ       -109
    I20(3)    R0        -42
    I20(3)    R21       5
    I20(3)    R30       1
    I21(3)    OBJ       -18
    I21(3)    R0        -167
    I21(3)    R22       2
    I21(3)    R30       1
    I22(3)    OBJ       -63
    I22(3)    R0        -89
    I22(3)    R23       16
    I22(3)    R30       1
    I23(3)    OBJ       118
    I23(3)    R0        63
    I23(3)    R24       10
    I23(3)    R30       1
    I24(3)    OBJ       -113
    I24(3)    R0        25
    I24(3)    R25       18
    I24(3)    R30       1
    I25(2)    OBJ       -194
    I25(2)    R0        -97
    I25(2)    R30       1
    I26(3)    OBJ       -82
    I26(3)    R0        11
    I26(3)    R27       7
    I26(3)    R30       1
    I27(3)    OBJ       -169
    I27(3)    R0        -75
    I27(3)    R28       13
    I27(3)    R30       1
    MARKER    'MARKER'                 'INTEND'
    C28(30)   OBJ       1
    C28(30)   R0        5
    C28(30)   R1        13
    C28(30)   R2        19
    C28(30)   R3        10
    C28(30)   R4        5
    C28(30)   R5        6
    C28(30)   R6        7
    C28(30)   R7        6
    C28(30)   R8        14
    C28(30)   R9        4
    C28(30)   R10       15
    C28(30)   R11       7
    C28(30)   R12       16
    C28(30)   R13       6
    C28(30)   R14       3
    C28(30)   R15       1
    C28(30)   R16       19
    C28(30)   R17       1
    C28(30)   R18       -1
    C28(30)   R19       1
    C28(30)   R20       6
    C28(30)   R21       12
    C28(30)   R22       -1
    C28(30)   R23       8
    C28(30)   R24       8
    C28(30)   R25       6
    C28(30)   R26       19
    C28(30)   R27       13
    C28(30)   R28       17
    C28(30)   R29       8
    C29(27)   OBJ       6
    C29(27)   R0        -2
    C29(27)   R1        11
    C29(27)   R2        10
    C29(27)   R3        8
    C29(27)   R4        12
    C29(27)   R5        18
    C29(27)   R6        1
    C29(27)   R7        7
    C29(27)   R8        3
    C29(27)   R9        4
    C29(27)   R10       9
    C29(27)   R11       3
    C29(27)   R12       1
    C29(27)   R13       3
    C29(27)   R14       5
    C29(27)   R15       2
    C29(27)   R16       2
    C29(27)   R19       9
    C29(27)   R20       2
    C29(27)   R21       3
    C29(27)   R22       15
    C29(27)   R24       18
    C29(27)   R25       13
    C29(27)   R26       8
    C29(27)   R27       3
    C29(27)   R28       3
    C29(27)   R29       18
    C30(1)    R1        1
    C31(1)    R2        1
    C32(1)    R3        1
    C33(1)    R4        1
    C34(1)    R5        1
    C35(1)    R6        1
    C36(1)    R7        1
    C37(1)    R8        1
    C38(1)    R9        1
    C39(1)    R10       1
    C40(1)    R11       1
    C41(1)    R12       1
    C42(1)    R13       1
    C43(1)    R14       1
    C44(1)    R15       1
    C45(1)    R16       1
    C46(1)    R17       1
    C47(1)    R18       1
    C48(1)    R19       1
    C49(1)    R20       1
    C50(1)    R21       1
    C51(1)    R22       1
    C52(1)    R23       1
    C53(1)    R24       1
    C54(1)    R25       1
    C55(1)    R26       1
    C56(1)    R27       1
    C57(1)    R28       1
    C58(1)    R29       1
    C59(1)    R30       1
RHS
    RHS1      R0        -91
    RHS1      R1        63
    RHS1      R2        51
    RHS1      R3        78
    RHS1      R4        56
    RHS1      R5        83
    RHS1      R6        58
    RHS1      R7        95
    RHS1      R8        58
    RHS1      R9        89
    RHS1      R10       70
    RHS1      R11       71
    RHS1      R12       74
    RHS1      R13       90
    RHS1      R14       55
    RHS1      R15       91
    RHS1      R16       64
    RHS1      R17       72
    RHS1      R18       59
    RHS1      R19       54
    RHS1      R20       51
    RHS1      R21       86
    RHS1      R22       64
    RHS1      R23       88
    RHS1      R24       70
    RHS1      R25       64
    RHS1      R26       73
    RHS1      R27       93
    RHS1      R28       91
    RHS1      R29       61
    RHS1      R30       9
BOUNDS
 UP BND1      I0(3)     1
 UP BND1      I1(3)     1
 UP BND1      I2(3)     1
 UP BND1      I3(3)     1
 UP BND1      I4(3)     1
 UP BND1      I5(3)     1
 UP BND1      I6(3)     1
 UP BND1      I7(3)     1
 UP BND1      I8(3)     1
 UP BND1      I9(3)     1
 UP BND1      I10(3)    1
 UP BND1      I11(3)    1
 UP BND1      I12(3)    1
 UP BND1      I13(3)    1
 UP BND1      I14(3)    1
 UP BND1      I15(3)    1
 UP BND1      I16(3)    1
 UP BND1      I17(3)    1
 UP BND1      I18(3)    1
 UP BND1      I19(3)    1
 UP BND1      I20(3)    1
 UP BND1      I21(3)    1
 UP BND1      I22(3)    1
 UP BND1      I23(3)    1
 UP BND1      I24(3)    1
 UP BND1      I25(2)    1
 UP BND1      I26(3)    1
 UP BND1      I27(3)    1
ENDATA
